c nIsolatedPIs 0
c maxPI 20
p cnf 588 1705
c gate 21 6 13 0
6 -21 0
13 -21 0
-6 -13 21 0
c gate 22 7 12 0
7 -22 0
12 -22 0
-7 -12 22 0
c gate 23 8 11 0
8 -23 0
11 -23 0
-8 -11 23 0
c gate 24 -22 -23 0
-22 -24 0
-23 -24 0
22 23 24 0
c gate 25 22 23 0
22 -25 0
23 -25 0
-22 -23 25 0
c gate 26 -24 -25 0
-24 -26 0
-25 -26 0
24 25 26 0
c gate 27 21 26 0
21 -27 0
26 -27 0
-21 -26 27 0
c gate 28 -21 -26 0
-21 -28 0
-26 -28 0
21 26 28 0
c gate 29 -27 -28 0
-27 -29 0
-28 -29 0
27 28 29 0
c gate 30 7 11 0
7 -30 0
11 -30 0
-7 -11 30 0
c gate 31 6 12 0
6 -31 0
12 -31 0
-6 -12 31 0
c gate 32 -30 -31 0
-30 -32 0
-31 -32 0
30 31 32 0
c gate 33 30 31 0
30 -33 0
31 -33 0
-30 -31 33 0
c gate 34 -32 -33 0
-32 -34 0
-33 -34 0
32 33 34 0
c gate 35 5 13 0
5 -35 0
13 -35 0
-5 -13 35 0
c gate 36 34 -35 0
34 -36 0
-35 -36 0
-34 35 36 0
c gate 37 -32 -36 0
-32 -37 0
-36 -37 0
32 36 37 0
c gate 38 29 37 0
29 -38 0
37 -38 0
-29 -37 38 0
c gate 39 3 16 0
3 -39 0
16 -39 0
-3 -16 39 0
c gate 40 4 15 0
4 -40 0
15 -40 0
-4 -15 40 0
c gate 41 5 14 0
5 -41 0
14 -41 0
-5 -14 41 0
c gate 42 -40 -41 0
-40 -42 0
-41 -42 0
40 41 42 0
c gate 43 40 41 0
40 -43 0
41 -43 0
-40 -41 43 0
c gate 44 -42 -43 0
-42 -44 0
-43 -44 0
42 43 44 0
c gate 45 -39 -44 0
-39 -45 0
-44 -45 0
39 44 45 0
c gate 46 39 44 0
39 -46 0
44 -46 0
-39 -44 46 0
c gate 47 -45 -46 0
-45 -47 0
-46 -47 0
45 46 47 0
c gate 48 -29 -37 0
-29 -48 0
-37 -48 0
29 37 48 0
c gate 49 -38 -48 0
-38 -49 0
-48 -49 0
38 48 49 0
c gate 50 47 49 0
47 -50 0
49 -50 0
-47 -49 50 0
c gate 51 -38 -50 0
-38 -51 0
-50 -51 0
38 50 51 0
c gate 52 4 16 0
4 -52 0
16 -52 0
-4 -16 52 0
c gate 53 5 15 0
5 -53 0
15 -53 0
-5 -15 53 0
c gate 54 6 14 0
6 -54 0
14 -54 0
-6 -14 54 0
c gate 55 -53 -54 0
-53 -55 0
-54 -55 0
53 54 55 0
c gate 56 53 54 0
53 -56 0
54 -56 0
-53 -54 56 0
c gate 57 -55 -56 0
-55 -57 0
-56 -57 0
55 56 57 0
c gate 58 52 57 0
52 -58 0
57 -58 0
-52 -57 58 0
c gate 59 -52 -57 0
-52 -59 0
-57 -59 0
52 57 59 0
c gate 60 -58 -59 0
-58 -60 0
-59 -60 0
58 59 60 0
c gate 61 -25 -27 0
-25 -61 0
-27 -61 0
25 27 61 0
c gate 62 7 13 0
7 -62 0
13 -62 0
-7 -13 62 0
c gate 63 8 12 0
8 -63 0
12 -63 0
-8 -12 63 0
c gate 64 9 11 0
9 -64 0
11 -64 0
-9 -11 64 0
c gate 65 -63 -64 0
-63 -65 0
-64 -65 0
63 64 65 0
c gate 66 63 64 0
63 -66 0
64 -66 0
-63 -64 66 0
c gate 67 -65 -66 0
-65 -67 0
-66 -67 0
65 66 67 0
c gate 68 62 67 0
62 -68 0
67 -68 0
-62 -67 68 0
c gate 69 -62 -67 0
-62 -69 0
-67 -69 0
62 67 69 0
c gate 70 -68 -69 0
-68 -70 0
-69 -70 0
68 69 70 0
c gate 71 -61 70 0
-61 -71 0
70 -71 0
61 -70 71 0
c gate 72 61 -70 0
61 -72 0
-70 -72 0
-61 70 72 0
c gate 73 -71 -72 0
-71 -73 0
-72 -73 0
71 72 73 0
c gate 74 60 73 0
60 -74 0
73 -74 0
-60 -73 74 0
c gate 75 -60 -73 0
-60 -75 0
-73 -75 0
60 73 75 0
c gate 76 -74 -75 0
-74 -76 0
-75 -76 0
74 75 76 0
c gate 77 -51 76 0
-51 -77 0
76 -77 0
51 -76 77 0
c gate 78 2 17 0
2 -78 0
17 -78 0
-2 -17 78 0
c gate 79 1 18 0
1 -79 0
18 -79 0
-1 -18 79 0
c gate 80 78 79 0
78 -80 0
79 -80 0
-78 -79 80 0
c gate 81 1 19 0
1 -81 0
19 -81 0
-1 -19 81 0
c gate 82 2 18 0
2 -82 0
18 -82 0
-2 -18 82 0
c gate 83 3 17 0
3 -83 0
17 -83 0
-3 -17 83 0
c gate 84 -82 -83 0
-82 -84 0
-83 -84 0
82 83 84 0
c gate 85 82 83 0
82 -85 0
83 -85 0
-82 -83 85 0
c gate 86 -84 -85 0
-84 -86 0
-85 -86 0
84 85 86 0
c gate 87 81 86 0
81 -87 0
86 -87 0
-81 -86 87 0
c gate 88 -81 -86 0
-81 -88 0
-86 -88 0
81 86 88 0
c gate 89 -87 -88 0
-87 -89 0
-88 -89 0
87 88 89 0
c gate 90 -43 -46 0
-43 -90 0
-46 -90 0
43 46 90 0
c gate 91 89 -90 0
89 -91 0
-90 -91 0
-89 90 91 0
c gate 92 -89 90 0
-89 -92 0
90 -92 0
89 -90 92 0
c gate 93 -91 -92 0
-91 -93 0
-92 -93 0
91 92 93 0
c gate 94 -80 -93 0
-80 -94 0
-93 -94 0
80 93 94 0
c gate 95 80 93 0
80 -95 0
93 -95 0
-80 -93 95 0
c gate 96 -94 -95 0
-94 -96 0
-95 -96 0
94 95 96 0
c gate 97 51 -76 0
51 -97 0
-76 -97 0
-51 76 97 0
c gate 98 -77 -97 0
-77 -98 0
-97 -98 0
77 97 98 0
c gate 99 96 98 0
96 -99 0
98 -99 0
-96 -98 99 0
c gate 100 -77 -99 0
-77 -100 0
-99 -100 0
77 99 100 0
c gate 101 -85 -87 0
-85 -101 0
-87 -101 0
85 87 101 0
c gate 102 2 19 0
2 -102 0
19 -102 0
-2 -19 102 0
c gate 103 3 18 0
3 -103 0
18 -103 0
-3 -18 103 0
c gate 104 4 17 0
4 -104 0
17 -104 0
-4 -17 104 0
c gate 105 -103 -104 0
-103 -105 0
-104 -105 0
103 104 105 0
c gate 106 103 104 0
103 -106 0
104 -106 0
-103 -104 106 0
c gate 107 -105 -106 0
-105 -107 0
-106 -107 0
105 106 107 0
c gate 108 102 107 0
102 -108 0
107 -108 0
-102 -107 108 0
c gate 109 -102 -107 0
-102 -109 0
-107 -109 0
102 107 109 0
c gate 110 -108 -109 0
-108 -110 0
-109 -110 0
108 109 110 0
c gate 111 -56 -58 0
-56 -111 0
-58 -111 0
56 58 111 0
c gate 112 110 -111 0
110 -112 0
-111 -112 0
-110 111 112 0
c gate 113 -110 111 0
-110 -113 0
111 -113 0
110 -111 113 0
c gate 114 -112 -113 0
-112 -114 0
-113 -114 0
112 113 114 0
c gate 115 -101 114 0
-101 -115 0
114 -115 0
101 -114 115 0
c gate 116 101 -114 0
101 -116 0
-114 -116 0
-101 114 116 0
c gate 117 -115 -116 0
-115 -117 0
-116 -117 0
115 116 117 0
c gate 118 -71 -74 0
-71 -118 0
-74 -118 0
71 74 118 0
c gate 119 5 16 0
5 -119 0
16 -119 0
-5 -16 119 0
c gate 120 6 15 0
6 -120 0
15 -120 0
-6 -15 120 0
c gate 121 7 14 0
7 -121 0
14 -121 0
-7 -14 121 0
c gate 122 -120 -121 0
-120 -122 0
-121 -122 0
120 121 122 0
c gate 123 120 121 0
120 -123 0
121 -123 0
-120 -121 123 0
c gate 124 -122 -123 0
-122 -124 0
-123 -124 0
122 123 124 0
c gate 125 119 124 0
119 -125 0
124 -125 0
-119 -124 125 0
c gate 126 -119 -124 0
-119 -126 0
-124 -126 0
119 124 126 0
c gate 127 -125 -126 0
-125 -127 0
-126 -127 0
125 126 127 0
c gate 128 -66 -68 0
-66 -128 0
-68 -128 0
66 68 128 0
c gate 129 8 13 0
8 -129 0
13 -129 0
-8 -13 129 0
c gate 130 9 12 0
9 -130 0
12 -130 0
-9 -12 130 0
c gate 131 10 11 0
10 -131 0
11 -131 0
-10 -11 131 0
c gate 132 -130 -131 0
-130 -132 0
-131 -132 0
130 131 132 0
c gate 133 130 131 0
130 -133 0
131 -133 0
-130 -131 133 0
c gate 134 -132 -133 0
-132 -134 0
-133 -134 0
132 133 134 0
c gate 135 129 134 0
129 -135 0
134 -135 0
-129 -134 135 0
c gate 136 -129 -134 0
-129 -136 0
-134 -136 0
129 134 136 0
c gate 137 -135 -136 0
-135 -137 0
-136 -137 0
135 136 137 0
c gate 138 -128 137 0
-128 -138 0
137 -138 0
128 -137 138 0
c gate 139 128 -137 0
128 -139 0
-137 -139 0
-128 137 139 0
c gate 140 -138 -139 0
-138 -140 0
-139 -140 0
138 139 140 0
c gate 141 127 140 0
127 -141 0
140 -141 0
-127 -140 141 0
c gate 142 -127 -140 0
-127 -142 0
-140 -142 0
127 140 142 0
c gate 143 -141 -142 0
-141 -143 0
-142 -143 0
141 142 143 0
c gate 144 -118 143 0
-118 -144 0
143 -144 0
118 -143 144 0
c gate 145 118 -143 0
118 -145 0
-143 -145 0
-118 143 145 0
c gate 146 -144 -145 0
-144 -146 0
-145 -146 0
144 145 146 0
c gate 147 117 146 0
117 -147 0
146 -147 0
-117 -146 147 0
c gate 148 -117 -146 0
-117 -148 0
-146 -148 0
117 146 148 0
c gate 149 -147 -148 0
-147 -149 0
-148 -149 0
147 148 149 0
c gate 150 -100 149 0
-100 -150 0
149 -150 0
100 -149 150 0
c gate 151 -91 -95 0
-91 -151 0
-95 -151 0
91 95 151 0
c gate 152 100 -149 0
100 -152 0
-149 -152 0
-100 149 152 0
c gate 153 -150 -152 0
-150 -153 0
-152 -153 0
150 152 153 0
c gate 154 -151 153 0
-151 -154 0
153 -154 0
151 -153 154 0
c gate 155 -150 -154 0
-150 -155 0
-154 -155 0
150 154 155 0
c gate 156 -112 -115 0
-112 -156 0
-115 -156 0
112 115 156 0
c gate 157 -144 -147 0
-144 -157 0
-147 -157 0
144 147 157 0
c gate 158 -106 -108 0
-106 -158 0
-108 -158 0
106 108 158 0
c gate 159 3 19 0
3 -159 0
19 -159 0
-3 -19 159 0
c gate 160 4 18 0
4 -160 0
18 -160 0
-4 -18 160 0
c gate 161 5 17 0
5 -161 0
17 -161 0
-5 -17 161 0
c gate 162 -160 -161 0
-160 -162 0
-161 -162 0
160 161 162 0
c gate 163 160 161 0
160 -163 0
161 -163 0
-160 -161 163 0
c gate 164 -162 -163 0
-162 -164 0
-163 -164 0
162 163 164 0
c gate 165 159 164 0
159 -165 0
164 -165 0
-159 -164 165 0
c gate 166 -159 -164 0
-159 -166 0
-164 -166 0
159 164 166 0
c gate 167 -165 -166 0
-165 -167 0
-166 -167 0
165 166 167 0
c gate 168 -123 -125 0
-123 -168 0
-125 -168 0
123 125 168 0
c gate 169 167 -168 0
167 -169 0
-168 -169 0
-167 168 169 0
c gate 170 -167 168 0
-167 -170 0
168 -170 0
167 -168 170 0
c gate 171 -169 -170 0
-169 -171 0
-170 -171 0
169 170 171 0
c gate 172 -158 171 0
-158 -172 0
171 -172 0
158 -171 172 0
c gate 173 158 -171 0
158 -173 0
-171 -173 0
-158 171 173 0
c gate 174 -172 -173 0
-172 -174 0
-173 -174 0
172 173 174 0
c gate 175 -138 -141 0
-138 -175 0
-141 -175 0
138 141 175 0
c gate 176 6 16 0
6 -176 0
16 -176 0
-6 -16 176 0
c gate 177 7 15 0
7 -177 0
15 -177 0
-7 -15 177 0
c gate 178 8 14 0
8 -178 0
14 -178 0
-8 -14 178 0
c gate 179 -177 -178 0
-177 -179 0
-178 -179 0
177 178 179 0
c gate 180 177 178 0
177 -180 0
178 -180 0
-177 -178 180 0
c gate 181 -179 -180 0
-179 -181 0
-180 -181 0
179 180 181 0
c gate 182 176 181 0
176 -182 0
181 -182 0
-176 -181 182 0
c gate 183 -176 -181 0
-176 -183 0
-181 -183 0
176 181 183 0
c gate 184 -182 -183 0
-182 -184 0
-183 -184 0
182 183 184 0
c gate 185 -133 -135 0
-133 -185 0
-135 -185 0
133 135 185 0
c gate 186 10 12 0
10 -186 0
12 -186 0
-10 -12 186 0
c gate 187 9 13 0
9 -187 0
13 -187 0
-9 -13 187 0
c gate 188 -186 -187 0
-186 -188 0
-187 -188 0
186 187 188 0
c gate 189 186 187 0
186 -189 0
187 -189 0
-186 -187 189 0
c gate 190 -188 -189 0
-188 -190 0
-189 -190 0
188 189 190 0
c gate 191 -185 190 0
-185 -191 0
190 -191 0
185 -190 191 0
c gate 192 185 -190 0
185 -192 0
-190 -192 0
-185 190 192 0
c gate 193 -191 -192 0
-191 -193 0
-192 -193 0
191 192 193 0
c gate 194 184 193 0
184 -194 0
193 -194 0
-184 -193 194 0
c gate 195 -184 -193 0
-184 -195 0
-193 -195 0
184 193 195 0
c gate 196 -194 -195 0
-194 -196 0
-195 -196 0
194 195 196 0
c gate 197 -175 196 0
-175 -197 0
196 -197 0
175 -196 197 0
c gate 198 175 -196 0
175 -198 0
-196 -198 0
-175 196 198 0
c gate 199 -197 -198 0
-197 -199 0
-198 -199 0
197 198 199 0
c gate 200 174 199 0
174 -200 0
199 -200 0
-174 -199 200 0
c gate 201 -174 -199 0
-174 -201 0
-199 -201 0
174 199 201 0
c gate 202 -200 -201 0
-200 -202 0
-201 -202 0
200 201 202 0
c gate 203 -157 202 0
-157 -203 0
202 -203 0
157 -202 203 0
c gate 204 157 -202 0
157 -204 0
-202 -204 0
-157 202 204 0
c gate 205 -203 -204 0
-203 -205 0
-204 -205 0
203 204 205 0
c gate 206 -156 205 0
-156 -206 0
205 -206 0
156 -205 206 0
c gate 207 156 -205 0
156 -207 0
-205 -207 0
-156 205 207 0
c gate 208 -206 -207 0
-206 -208 0
-207 -208 0
206 207 208 0
c gate 209 -155 208 0
-155 -209 0
208 -209 0
155 -208 209 0
c gate 210 2 20 0
2 -210 0
20 -210 0
-2 -20 210 0
c gate 211 155 -208 0
155 -211 0
-208 -211 0
-155 208 211 0
c gate 212 -209 -211 0
-209 -212 0
-211 -212 0
209 211 212 0
c gate 213 210 212 0
210 -213 0
212 -213 0
-210 -212 213 0
c gate 214 -209 -213 0
-209 -214 0
-213 -214 0
209 213 214 0
c gate 215 3 20 0
3 -215 0
20 -215 0
-3 -20 215 0
c gate 216 -203 -206 0
-203 -216 0
-206 -216 0
203 206 216 0
c gate 217 -169 -172 0
-169 -217 0
-172 -217 0
169 172 217 0
c gate 218 -197 -200 0
-197 -218 0
-200 -218 0
197 200 218 0
c gate 219 -163 -165 0
-163 -219 0
-165 -219 0
163 165 219 0
c gate 220 4 19 0
4 -220 0
19 -220 0
-4 -19 220 0
c gate 221 5 18 0
5 -221 0
18 -221 0
-5 -18 221 0
c gate 222 6 17 0
6 -222 0
17 -222 0
-6 -17 222 0
c gate 223 -221 -222 0
-221 -223 0
-222 -223 0
221 222 223 0
c gate 224 221 222 0
221 -224 0
222 -224 0
-221 -222 224 0
c gate 225 -223 -224 0
-223 -225 0
-224 -225 0
223 224 225 0
c gate 226 220 225 0
220 -226 0
225 -226 0
-220 -225 226 0
c gate 227 -220 -225 0
-220 -227 0
-225 -227 0
220 225 227 0
c gate 228 -226 -227 0
-226 -228 0
-227 -228 0
226 227 228 0
c gate 229 -180 -182 0
-180 -229 0
-182 -229 0
180 182 229 0
c gate 230 228 -229 0
228 -230 0
-229 -230 0
-228 229 230 0
c gate 231 -228 229 0
-228 -231 0
229 -231 0
228 -229 231 0
c gate 232 -230 -231 0
-230 -232 0
-231 -232 0
230 231 232 0
c gate 233 -219 232 0
-219 -233 0
232 -233 0
219 -232 233 0
c gate 234 219 -232 0
219 -234 0
-232 -234 0
-219 232 234 0
c gate 235 -233 -234 0
-233 -235 0
-234 -235 0
233 234 235 0
c gate 236 -191 -194 0
-191 -236 0
-194 -236 0
191 194 236 0
c gate 237 7 16 0
7 -237 0
16 -237 0
-7 -16 237 0
c gate 238 8 15 0
8 -238 0
15 -238 0
-8 -15 238 0
c gate 239 9 14 0
9 -239 0
14 -239 0
-9 -14 239 0
c gate 240 -238 -239 0
-238 -240 0
-239 -240 0
238 239 240 0
c gate 241 238 239 0
238 -241 0
239 -241 0
-238 -239 241 0
c gate 242 -240 -241 0
-240 -242 0
-241 -242 0
240 241 242 0
c gate 243 237 242 0
237 -243 0
242 -243 0
-237 -242 243 0
c gate 244 -237 -242 0
-237 -244 0
-242 -244 0
237 242 244 0
c gate 245 -243 -244 0
-243 -245 0
-244 -245 0
243 244 245 0
c gate 246 10 13 0
10 -246 0
13 -246 0
-10 -13 246 0
c gate 247 -130 246 0
-130 -247 0
246 -247 0
130 -246 247 0
c gate 248 245 247 0
245 -248 0
247 -248 0
-245 -247 248 0
c gate 249 -245 -247 0
-245 -249 0
-247 -249 0
245 247 249 0
c gate 250 -248 -249 0
-248 -250 0
-249 -250 0
248 249 250 0
c gate 251 -236 250 0
-236 -251 0
250 -251 0
236 -250 251 0
c gate 252 236 -250 0
236 -252 0
-250 -252 0
-236 250 252 0
c gate 253 -251 -252 0
-251 -253 0
-252 -253 0
251 252 253 0
c gate 254 235 253 0
235 -254 0
253 -254 0
-235 -253 254 0
c gate 255 -235 -253 0
-235 -255 0
-253 -255 0
235 253 255 0
c gate 256 -254 -255 0
-254 -256 0
-255 -256 0
254 255 256 0
c gate 257 -218 256 0
-218 -257 0
256 -257 0
218 -256 257 0
c gate 258 218 -256 0
218 -258 0
-256 -258 0
-218 256 258 0
c gate 259 -257 -258 0
-257 -259 0
-258 -259 0
257 258 259 0
c gate 260 -217 259 0
-217 -260 0
259 -260 0
217 -259 260 0
c gate 261 217 -259 0
217 -261 0
-259 -261 0
-217 259 261 0
c gate 262 -260 -261 0
-260 -262 0
-261 -262 0
260 261 262 0
c gate 263 -216 262 0
-216 -263 0
262 -263 0
216 -262 263 0
c gate 264 216 -262 0
216 -264 0
-262 -264 0
-216 262 264 0
c gate 265 -263 -264 0
-263 -265 0
-264 -265 0
263 264 265 0
c gate 266 215 265 0
215 -266 0
265 -266 0
-215 -265 266 0
c gate 267 -215 -265 0
-215 -267 0
-265 -267 0
215 265 267 0
c gate 268 -266 -267 0
-266 -268 0
-267 -268 0
266 267 268 0
c gate 269 214 -268 0
214 -269 0
-268 -269 0
-214 268 269 0
c gate 270 -47 -49 0
-47 -270 0
-49 -270 0
47 49 270 0
c gate 271 -50 -270 0
-50 -271 0
-270 -271 0
50 270 271 0
c gate 272 6 11 0
6 -272 0
11 -272 0
-6 -11 272 0
c gate 273 5 12 0
5 -273 0
12 -273 0
-5 -12 273 0
c gate 274 272 273 0
272 -274 0
273 -274 0
-272 -273 274 0
c gate 275 4 13 0
4 -275 0
13 -275 0
-4 -13 275 0
c gate 276 -272 -273 0
-272 -276 0
-273 -276 0
272 273 276 0
c gate 277 -274 -276 0
-274 -277 0
-276 -277 0
274 276 277 0
c gate 278 275 277 0
275 -278 0
277 -278 0
-275 -277 278 0
c gate 279 -274 -278 0
-274 -279 0
-278 -279 0
274 278 279 0
c gate 280 -34 35 0
-34 -280 0
35 -280 0
34 -35 280 0
c gate 281 -36 -280 0
-36 -281 0
-280 -281 0
36 280 281 0
c gate 282 279 281 0
279 -282 0
281 -282 0
-279 -281 282 0
c gate 283 -279 -281 0
-279 -283 0
-281 -283 0
279 281 283 0
c gate 284 -282 -283 0
-282 -284 0
-283 -284 0
282 283 284 0
c gate 285 2 16 0
2 -285 0
16 -285 0
-2 -16 285 0
c gate 286 4 14 0
4 -286 0
14 -286 0
-4 -14 286 0
c gate 287 3 15 0
3 -287 0
15 -287 0
-3 -15 287 0
c gate 288 -286 -287 0
-286 -288 0
-287 -288 0
286 287 288 0
c gate 289 286 287 0
286 -289 0
287 -289 0
-286 -287 289 0
c gate 290 -288 -289 0
-288 -290 0
-289 -290 0
288 289 290 0
c gate 291 285 290 0
285 -291 0
290 -291 0
-285 -290 291 0
c gate 292 -285 -290 0
-285 -292 0
-290 -292 0
285 290 292 0
c gate 293 -291 -292 0
-291 -293 0
-292 -293 0
291 292 293 0
c gate 294 284 -293 0
284 -294 0
-293 -294 0
-284 293 294 0
c gate 295 -282 -294 0
-282 -295 0
-294 -295 0
282 294 295 0
c gate 296 271 295 0
271 -296 0
295 -296 0
-271 -295 296 0
c gate 297 -78 -79 0
-78 -297 0
-79 -297 0
78 79 297 0
c gate 298 -80 -297 0
-80 -298 0
-297 -298 0
80 297 298 0
c gate 299 -289 -291 0
-289 -299 0
-291 -299 0
289 291 299 0
c gate 300 -298 299 0
-298 -300 0
299 -300 0
298 -299 300 0
c gate 301 298 -299 0
298 -301 0
-299 -301 0
-298 299 301 0
c gate 302 -300 -301 0
-300 -302 0
-301 -302 0
300 301 302 0
c gate 303 -271 -295 0
-271 -303 0
-295 -303 0
271 295 303 0
c gate 304 -296 -303 0
-296 -304 0
-303 -304 0
296 303 304 0
c gate 305 302 304 0
302 -305 0
304 -305 0
-302 -304 305 0
c gate 306 -296 -305 0
-296 -306 0
-305 -306 0
296 305 306 0
c gate 307 -96 -98 0
-96 -307 0
-98 -307 0
96 98 307 0
c gate 308 -99 -307 0
-99 -308 0
-307 -308 0
99 307 308 0
c gate 309 -306 308 0
-306 -309 0
308 -309 0
306 -308 309 0
c gate 310 306 -308 0
306 -310 0
-308 -310 0
-306 308 310 0
c gate 311 -309 -310 0
-309 -311 0
-310 -311 0
309 310 311 0
c gate 312 301 311 0
301 -312 0
311 -312 0
-301 -311 312 0
c gate 313 -309 -312 0
-309 -313 0
-312 -313 0
309 312 313 0
c gate 314 151 -153 0
151 -314 0
-153 -314 0
-151 153 314 0
c gate 315 -154 -314 0
-154 -315 0
-314 -315 0
154 314 315 0
c gate 316 -313 315 0
-313 -316 0
315 -316 0
313 -315 316 0
c gate 317 1 20 0
1 -317 0
20 -317 0
-1 -20 317 0
c gate 318 313 -315 0
313 -318 0
-315 -318 0
-313 315 318 0
c gate 319 -316 -318 0
-316 -319 0
-318 -319 0
316 318 319 0
c gate 320 317 319 0
317 -320 0
319 -320 0
-317 -319 320 0
c gate 321 -316 -320 0
-316 -321 0
-320 -321 0
316 320 321 0
c gate 322 -210 -212 0
-210 -322 0
-212 -322 0
210 212 322 0
c gate 323 -213 -322 0
-213 -323 0
-322 -323 0
213 322 323 0
c gate 324 -321 323 0
-321 -324 0
323 -324 0
321 -323 324 0
c gate 325 -214 268 0
-214 -325 0
268 -325 0
214 -268 325 0
c gate 326 -324 -325 0
-324 -326 0
-325 -326 0
324 325 326 0
c gate 327 321 -323 0
321 -327 0
-323 -327 0
-321 323 327 0
c gate 328 -317 -319 0
-317 -328 0
-319 -328 0
317 319 328 0
c gate 329 -320 -328 0
-320 -329 0
-328 -329 0
320 328 329 0
c gate 330 -327 329 0
-327 -330 0
329 -330 0
327 -329 330 0
c gate 331 -275 -277 0
-275 -331 0
-277 -331 0
275 277 331 0
c gate 332 -278 -331 0
-278 -332 0
-331 -332 0
278 331 332 0
c gate 333 4 12 0
4 -333 0
12 -333 0
-4 -12 333 0
c gate 334 5 11 0
5 -334 0
11 -334 0
-5 -11 334 0
c gate 335 -333 -334 0
-333 -335 0
-334 -335 0
333 334 335 0
c gate 336 3 13 0
3 -336 0
13 -336 0
-3 -13 336 0
c gate 337 333 334 0
333 -337 0
334 -337 0
-333 -334 337 0
c gate 338 -335 -337 0
-335 -338 0
-337 -338 0
335 337 338 0
c gate 339 -336 338 0
-336 -339 0
338 -339 0
336 -338 339 0
c gate 340 -335 -339 0
-335 -340 0
-339 -340 0
335 339 340 0
c gate 341 332 340 0
332 -341 0
340 -341 0
-332 -340 341 0
c gate 342 1 16 0
1 -342 0
16 -342 0
-1 -16 342 0
c gate 343 3 14 0
3 -343 0
14 -343 0
-3 -14 343 0
c gate 344 2 15 0
2 -344 0
15 -344 0
-2 -15 344 0
c gate 345 343 344 0
343 -345 0
344 -345 0
-343 -344 345 0
c gate 346 -343 -344 0
-343 -346 0
-344 -346 0
343 344 346 0
c gate 347 -345 -346 0
-345 -347 0
-346 -347 0
345 346 347 0
c gate 348 342 347 0
342 -348 0
347 -348 0
-342 -347 348 0
c gate 349 -342 -347 0
-342 -349 0
-347 -349 0
342 347 349 0
c gate 350 -348 -349 0
-348 -350 0
-349 -350 0
348 349 350 0
c gate 351 -332 -340 0
-332 -351 0
-340 -351 0
332 340 351 0
c gate 352 -341 -351 0
-341 -352 0
-351 -352 0
341 351 352 0
c gate 353 350 352 0
350 -353 0
352 -353 0
-350 -352 353 0
c gate 354 -341 -353 0
-341 -354 0
-353 -354 0
341 353 354 0
c gate 355 -284 293 0
-284 -355 0
293 -355 0
284 -293 355 0
c gate 356 -294 -355 0
-294 -356 0
-355 -356 0
294 355 356 0
c gate 357 -354 -356 0
-354 -357 0
-356 -357 0
354 356 357 0
c gate 358 354 356 0
354 -358 0
356 -358 0
-354 -356 358 0
c gate 359 -357 -358 0
-357 -359 0
-358 -359 0
357 358 359 0
c gate 360 1 17 0
1 -360 0
17 -360 0
-1 -17 360 0
c gate 361 -345 -348 0
-345 -361 0
-348 -361 0
345 348 361 0
c gate 362 360 -361 0
360 -362 0
-361 -362 0
-360 361 362 0
c gate 363 -360 361 0
-360 -363 0
361 -363 0
360 -361 363 0
c gate 364 -362 -363 0
-362 -364 0
-363 -364 0
362 363 364 0
c gate 365 359 364 0
359 -365 0
364 -365 0
-359 -364 365 0
c gate 366 -357 -365 0
-357 -366 0
-365 -366 0
357 365 366 0
c gate 367 -302 -304 0
-302 -367 0
-304 -367 0
302 304 367 0
c gate 368 -305 -367 0
-305 -368 0
-367 -368 0
305 367 368 0
c gate 369 -366 368 0
-366 -369 0
368 -369 0
366 -368 369 0
c gate 370 366 -368 0
366 -370 0
-368 -370 0
-366 368 370 0
c gate 371 -369 -370 0
-369 -371 0
-370 -371 0
369 370 371 0
c gate 372 362 371 0
362 -372 0
371 -372 0
-362 -371 372 0
c gate 373 -369 -372 0
-369 -373 0
-372 -373 0
369 372 373 0
c gate 374 -301 -311 0
-301 -374 0
-311 -374 0
301 311 374 0
c gate 375 -312 -374 0
-312 -375 0
-374 -375 0
312 374 375 0
c gate 376 -373 375 0
-373 -376 0
375 -376 0
373 -375 376 0
c gate 377 373 -375 0
373 -377 0
-375 -377 0
-373 375 377 0
c gate 378 -362 -371 0
-362 -378 0
-371 -378 0
362 371 378 0
c gate 379 -372 -378 0
-372 -379 0
-378 -379 0
372 378 379 0
c gate 380 -377 379 0
-377 -380 0
379 -380 0
377 -379 380 0
c gate 381 3 12 0
3 -381 0
12 -381 0
-3 -12 381 0
c gate 382 4 11 0
4 -382 0
11 -382 0
-4 -11 382 0
c gate 383 381 382 0
381 -383 0
382 -383 0
-381 -382 383 0
c gate 384 -381 -382 0
-381 -384 0
-382 -384 0
381 382 384 0
c gate 385 -383 -384 0
-383 -385 0
-384 -385 0
383 384 385 0
c gate 386 2 13 0
2 -386 0
13 -386 0
-2 -13 386 0
c gate 387 385 386 0
385 -387 0
386 -387 0
-385 -386 387 0
c gate 388 -383 -387 0
-383 -388 0
-387 -388 0
383 387 388 0
c gate 389 336 -338 0
336 -389 0
-338 -389 0
-336 338 389 0
c gate 390 -339 -389 0
-339 -390 0
-389 -390 0
339 389 390 0
c gate 391 -388 -390 0
-388 -391 0
-390 -391 0
388 390 391 0
c gate 392 388 390 0
388 -392 0
390 -392 0
-388 -390 392 0
c gate 393 -391 -392 0
-391 -393 0
-392 -393 0
391 392 393 0
c gate 394 2 14 0
2 -394 0
14 -394 0
-2 -14 394 0
c gate 395 1 15 0
1 -395 0
15 -395 0
-1 -15 395 0
c gate 396 -394 -395 0
-394 -396 0
-395 -396 0
394 395 396 0
c gate 397 394 395 0
394 -397 0
395 -397 0
-394 -395 397 0
c gate 398 -396 -397 0
-396 -398 0
-397 -398 0
396 397 398 0
c gate 399 393 398 0
393 -399 0
398 -399 0
-393 -398 399 0
c gate 400 -391 -399 0
-391 -400 0
-399 -400 0
391 399 400 0
c gate 401 -350 -352 0
-350 -401 0
-352 -401 0
350 352 401 0
c gate 402 -353 -401 0
-353 -402 0
-401 -402 0
353 401 402 0
c gate 403 -400 402 0
-400 -403 0
402 -403 0
400 -402 403 0
c gate 404 400 -402 0
400 -404 0
-402 -404 0
-400 402 404 0
c gate 405 -403 -404 0
-403 -405 0
-404 -405 0
403 404 405 0
c gate 406 397 405 0
397 -406 0
405 -406 0
-397 -405 406 0
c gate 407 -403 -406 0
-403 -407 0
-406 -407 0
403 406 407 0
c gate 408 -359 -364 0
-359 -408 0
-364 -408 0
359 364 408 0
c gate 409 -365 -408 0
-365 -409 0
-408 -409 0
365 408 409 0
c gate 410 -407 409 0
-407 -410 0
409 -410 0
407 -409 410 0
c gate 411 380 410 0
380 -411 0
410 -411 0
-380 -410 411 0
c gate 412 -376 -411 0
-376 -412 0
-411 -412 0
376 411 412 0
c gate 413 330 -412 0
330 -413 0
-412 -413 0
-330 412 413 0
c gate 414 326 -413 0
326 -414 0
-413 -414 0
-326 413 414 0
c gate 415 -269 -414 0
-269 -415 0
-414 -415 0
269 414 415 0
c gate 416 -263 -266 0
-263 -416 0
-266 -416 0
263 266 416 0
c gate 417 4 20 0
4 -417 0
20 -417 0
-4 -20 417 0
c gate 418 -257 -260 0
-257 -418 0
-260 -418 0
257 260 418 0
c gate 419 -230 -233 0
-230 -419 0
-233 -419 0
230 233 419 0
c gate 420 -251 -254 0
-251 -420 0
-254 -420 0
251 254 420 0
c gate 421 -224 -226 0
-224 -421 0
-226 -421 0
224 226 421 0
c gate 422 5 19 0
5 -422 0
19 -422 0
-5 -19 422 0
c gate 423 6 18 0
6 -423 0
18 -423 0
-6 -18 423 0
c gate 424 7 17 0
7 -424 0
17 -424 0
-7 -17 424 0
c gate 425 -423 -424 0
-423 -425 0
-424 -425 0
423 424 425 0
c gate 426 423 424 0
423 -426 0
424 -426 0
-423 -424 426 0
c gate 427 -425 -426 0
-425 -427 0
-426 -427 0
425 426 427 0
c gate 428 422 427 0
422 -428 0
427 -428 0
-422 -427 428 0
c gate 429 -422 -427 0
-422 -429 0
-427 -429 0
422 427 429 0
c gate 430 -428 -429 0
-428 -430 0
-429 -430 0
428 429 430 0
c gate 431 -241 -243 0
-241 -431 0
-243 -431 0
241 243 431 0
c gate 432 430 -431 0
430 -432 0
-431 -432 0
-430 431 432 0
c gate 433 -430 431 0
-430 -433 0
431 -433 0
430 -431 433 0
c gate 434 -432 -433 0
-432 -434 0
-433 -434 0
432 433 434 0
c gate 435 -421 434 0
-421 -435 0
434 -435 0
421 -434 435 0
c gate 436 421 -434 0
421 -436 0
-434 -436 0
-421 434 436 0
c gate 437 -435 -436 0
-435 -437 0
-436 -437 0
435 436 437 0
c gate 438 -189 -248 0
-189 -438 0
-248 -438 0
189 248 438 0
c gate 439 8 16 0
8 -439 0
16 -439 0
-8 -16 439 0
c gate 440 9 15 0
9 -440 0
15 -440 0
-9 -15 440 0
c gate 441 10 14 0
10 -441 0
14 -441 0
-10 -14 441 0
c gate 442 -440 -441 0
-440 -442 0
-441 -442 0
440 441 442 0
c gate 443 440 441 0
440 -443 0
441 -443 0
-440 -441 443 0
c gate 444 -442 -443 0
-442 -444 0
-443 -444 0
442 443 444 0
c gate 445 439 444 0
439 -445 0
444 -445 0
-439 -444 445 0
c gate 446 -439 -444 0
-439 -446 0
-444 -446 0
439 444 446 0
c gate 447 -445 -446 0
-445 -447 0
-446 -447 0
445 446 447 0
c gate 448 -438 447 0
-438 -448 0
447 -448 0
438 -447 448 0
c gate 449 438 -447 0
438 -449 0
-447 -449 0
-438 447 449 0
c gate 450 -448 -449 0
-448 -450 0
-449 -450 0
448 449 450 0
c gate 451 437 450 0
437 -451 0
450 -451 0
-437 -450 451 0
c gate 452 -437 -450 0
-437 -452 0
-450 -452 0
437 450 452 0
c gate 453 -451 -452 0
-451 -453 0
-452 -453 0
451 452 453 0
c gate 454 -420 453 0
-420 -454 0
453 -454 0
420 -453 454 0
c gate 455 420 -453 0
420 -455 0
-453 -455 0
-420 453 455 0
c gate 456 -454 -455 0
-454 -456 0
-455 -456 0
454 455 456 0
c gate 457 -419 456 0
-419 -457 0
456 -457 0
419 -456 457 0
c gate 458 419 -456 0
419 -458 0
-456 -458 0
-419 456 458 0
c gate 459 -457 -458 0
-457 -459 0
-458 -459 0
457 458 459 0
c gate 460 -418 459 0
-418 -460 0
459 -460 0
418 -459 460 0
c gate 461 418 -459 0
418 -461 0
-459 -461 0
-418 459 461 0
c gate 462 -460 -461 0
-460 -462 0
-461 -462 0
460 461 462 0
c gate 463 417 462 0
417 -463 0
462 -463 0
-417 -462 463 0
c gate 464 -417 -462 0
-417 -464 0
-462 -464 0
417 462 464 0
c gate 465 -463 -464 0
-463 -465 0
-464 -465 0
463 464 465 0
c gate 466 -416 -465 0
-416 -466 0
-465 -466 0
416 465 466 0
c gate 467 416 465 0
416 -467 0
465 -467 0
-416 -465 467 0
c gate 468 -466 -467 0
-466 -468 0
-467 -468 0
466 467 468 0
c gate 469 -454 -457 0
-454 -469 0
-457 -469 0
454 457 469 0
c gate 470 -432 -435 0
-432 -470 0
-435 -470 0
432 435 470 0
c gate 471 -448 -451 0
-448 -471 0
-451 -471 0
448 451 471 0
c gate 472 -426 -428 0
-426 -472 0
-428 -472 0
426 428 472 0
c gate 473 6 19 0
6 -473 0
19 -473 0
-6 -19 473 0
c gate 474 7 18 0
7 -474 0
18 -474 0
-7 -18 474 0
c gate 475 8 17 0
8 -475 0
17 -475 0
-8 -17 475 0
c gate 476 -474 -475 0
-474 -476 0
-475 -476 0
474 475 476 0
c gate 477 474 475 0
474 -477 0
475 -477 0
-474 -475 477 0
c gate 478 -476 -477 0
-476 -478 0
-477 -478 0
476 477 478 0
c gate 479 473 478 0
473 -479 0
478 -479 0
-473 -478 479 0
c gate 480 -473 -478 0
-473 -480 0
-478 -480 0
473 478 480 0
c gate 481 -479 -480 0
-479 -481 0
-480 -481 0
479 480 481 0
c gate 482 -443 -445 0
-443 -482 0
-445 -482 0
443 445 482 0
c gate 483 481 -482 0
481 -483 0
-482 -483 0
-481 482 483 0
c gate 484 -481 482 0
-481 -484 0
482 -484 0
481 -482 484 0
c gate 485 -483 -484 0
-483 -485 0
-484 -485 0
483 484 485 0
c gate 486 472 -485 0
472 -486 0
-485 -486 0
-472 485 486 0
c gate 487 -472 485 0
-472 -487 0
485 -487 0
472 -485 487 0
c gate 488 -486 -487 0
-486 -488 0
-487 -488 0
486 487 488 0
c gate 489 10 15 0
10 -489 0
15 -489 0
-10 -15 489 0
c gate 490 9 16 0
9 -490 0
16 -490 0
-9 -16 490 0
c gate 491 -489 -490 0
-489 -491 0
-490 -491 0
489 490 491 0
c gate 492 489 490 0
489 -492 0
490 -492 0
-489 -490 492 0
c gate 493 -491 -492 0
-491 -493 0
-492 -493 0
491 492 493 0
c gate 494 488 493 0
488 -494 0
493 -494 0
-488 -493 494 0
c gate 495 -488 -493 0
-488 -495 0
-493 -495 0
488 493 495 0
c gate 496 -494 -495 0
-494 -496 0
-495 -496 0
494 495 496 0
c gate 497 -471 496 0
-471 -497 0
496 -497 0
471 -496 497 0
c gate 498 471 -496 0
471 -498 0
-496 -498 0
-471 496 498 0
c gate 499 -497 -498 0
-497 -499 0
-498 -499 0
497 498 499 0
c gate 500 -470 499 0
-470 -500 0
499 -500 0
470 -499 500 0
c gate 501 470 -499 0
470 -501 0
-499 -501 0
-470 499 501 0
c gate 502 -500 -501 0
-500 -502 0
-501 -502 0
500 501 502 0
c gate 503 -469 502 0
-469 -503 0
502 -503 0
469 -502 503 0
c gate 504 5 20 0
5 -504 0
20 -504 0
-5 -20 504 0
c gate 505 469 -502 0
469 -505 0
-502 -505 0
-469 502 505 0
c gate 506 -503 -505 0
-503 -506 0
-505 -506 0
503 505 506 0
c gate 507 504 506 0
504 -507 0
506 -507 0
-504 -506 507 0
c gate 508 -503 -507 0
-503 -508 0
-507 -508 0
503 507 508 0
c gate 509 6 20 0
6 -509 0
20 -509 0
-6 -20 509 0
c gate 510 -497 -500 0
-497 -510 0
-500 -510 0
497 500 510 0
c gate 511 -483 -487 0
-483 -511 0
-487 -511 0
483 487 511 0
c gate 512 10 16 0
10 -512 0
16 -512 0
-10 -16 512 0
c gate 513 -477 -479 0
-477 -513 0
-479 -513 0
477 479 513 0
c gate 514 7 19 0
7 -514 0
19 -514 0
-7 -19 514 0
c gate 515 8 18 0
8 -515 0
18 -515 0
-8 -18 515 0
c gate 516 9 17 0
9 -516 0
17 -516 0
-9 -17 516 0
c gate 517 -515 -516 0
-515 -517 0
-516 -517 0
515 516 517 0
c gate 518 515 516 0
515 -518 0
516 -518 0
-515 -516 518 0
c gate 519 -517 -518 0
-517 -519 0
-518 -519 0
517 518 519 0
c gate 520 514 519 0
514 -520 0
519 -520 0
-514 -519 520 0
c gate 521 -514 -519 0
-514 -521 0
-519 -521 0
514 519 521 0
c gate 522 -520 -521 0
-520 -522 0
-521 -522 0
520 521 522 0
c gate 523 492 522 0
492 -523 0
522 -523 0
-492 -522 523 0
c gate 524 -492 -522 0
-492 -524 0
-522 -524 0
492 522 524 0
c gate 525 -523 -524 0
-523 -525 0
-524 -525 0
523 524 525 0
c gate 526 513 -525 0
513 -526 0
-525 -526 0
-513 525 526 0
c gate 527 -513 525 0
-513 -527 0
525 -527 0
513 -525 527 0
c gate 528 -526 -527 0
-526 -528 0
-527 -528 0
526 527 528 0
c gate 529 512 528 0
512 -529 0
528 -529 0
-512 -528 529 0
c gate 530 -512 -528 0
-512 -530 0
-528 -530 0
512 528 530 0
c gate 531 -529 -530 0
-529 -531 0
-530 -531 0
529 530 531 0
c gate 532 494 531 0
494 -532 0
531 -532 0
-494 -531 532 0
c gate 533 -494 -531 0
-494 -533 0
-531 -533 0
494 531 533 0
c gate 534 -532 -533 0
-532 -534 0
-533 -534 0
532 533 534 0
c gate 535 -511 534 0
-511 -535 0
534 -535 0
511 -534 535 0
c gate 536 511 -534 0
511 -536 0
-534 -536 0
-511 534 536 0
c gate 537 -535 -536 0
-535 -537 0
-536 -537 0
535 536 537 0
c gate 538 -510 537 0
-510 -538 0
537 -538 0
510 -537 538 0
c gate 539 510 -537 0
510 -539 0
-537 -539 0
-510 537 539 0
c gate 540 -538 -539 0
-538 -540 0
-539 -540 0
538 539 540 0
c gate 541 509 540 0
509 -541 0
540 -541 0
-509 -540 541 0
c gate 542 -509 -540 0
-509 -542 0
-540 -542 0
509 540 542 0
c gate 543 -541 -542 0
-541 -543 0
-542 -543 0
541 542 543 0
c gate 544 508 -543 0
508 -544 0
-543 -544 0
-508 543 544 0
c gate 545 -508 543 0
-508 -545 0
543 -545 0
508 -543 545 0
c gate 546 -538 -541 0
-538 -546 0
-541 -546 0
538 541 546 0
c gate 547 7 20 0
7 -547 0
20 -547 0
-7 -20 547 0
c gate 548 -532 -535 0
-532 -548 0
-535 -548 0
532 535 548 0
c gate 549 -523 -527 0
-523 -549 0
-527 -549 0
523 527 549 0
c gate 550 -518 -520 0
-518 -550 0
-520 -550 0
518 520 550 0
c gate 551 8 19 0
8 -551 0
19 -551 0
-8 -19 551 0
c gate 552 9 18 0
9 -552 0
18 -552 0
-9 -18 552 0
c gate 553 10 17 0
10 -553 0
17 -553 0
-10 -17 553 0
c gate 554 -552 -553 0
-552 -554 0
-553 -554 0
552 553 554 0
c gate 555 552 553 0
552 -555 0
553 -555 0
-552 -553 555 0
c gate 556 -554 -555 0
-554 -556 0
-555 -556 0
554 555 556 0
c gate 557 551 556 0
551 -557 0
556 -557 0
-551 -556 557 0
c gate 558 -551 -556 0
-551 -558 0
-556 -558 0
551 556 558 0
c gate 559 -557 -558 0
-557 -559 0
-558 -559 0
557 558 559 0
c gate 560 -550 559 0
-550 -560 0
559 -560 0
550 -559 560 0
c gate 561 550 -559 0
550 -561 0
-559 -561 0
-550 559 561 0
c gate 562 -560 -561 0
-560 -562 0
-561 -562 0
560 561 562 0
c gate 563 529 562 0
529 -563 0
562 -563 0
-529 -562 563 0
c gate 564 -529 -562 0
-529 -564 0
-562 -564 0
529 562 564 0
c gate 565 -563 -564 0
-563 -565 0
-564 -565 0
563 564 565 0
c gate 566 -549 565 0
-549 -566 0
565 -566 0
549 -565 566 0
c gate 567 549 -565 0
549 -567 0
-565 -567 0
-549 565 567 0
c gate 568 -566 -567 0
-566 -568 0
-567 -568 0
566 567 568 0
c gate 569 -548 568 0
-548 -569 0
568 -569 0
548 -568 569 0
c gate 570 548 -568 0
548 -570 0
-568 -570 0
-548 568 570 0
c gate 571 -569 -570 0
-569 -571 0
-570 -571 0
569 570 571 0
c gate 572 547 571 0
547 -572 0
571 -572 0
-547 -571 572 0
c gate 573 -547 -571 0
-547 -573 0
-571 -573 0
547 571 573 0
c gate 574 -572 -573 0
-572 -574 0
-573 -574 0
572 573 574 0
c gate 575 -546 574 0
-546 -575 0
574 -575 0
546 -574 575 0
c gate 576 546 -574 0
546 -576 0
-574 -576 0
-546 574 576 0
c gate 577 -575 -576 0
-575 -577 0
-576 -577 0
575 576 577 0
c gate 578 -545 577 0
-545 -578 0
577 -578 0
545 -577 578 0
c gate 579 -544 578 0
-544 -579 0
578 -579 0
544 -578 579 0
c gate 580 -468 579 0
-468 -580 0
579 -580 0
468 -579 580 0
c gate 581 -460 -463 0
-460 -581 0
-463 -581 0
460 463 581 0
c gate 582 -504 -506 0
-504 -582 0
-506 -582 0
504 506 582 0
c gate 583 -507 -582 0
-507 -583 0
-582 -583 0
507 582 583 0
c gate 584 581 583 0
581 -584 0
583 -584 0
-581 -583 584 0
c gate 585 -581 -583 0
-581 -585 0
-583 -585 0
581 583 585 0
c gate 586 -584 -585 0
-584 -586 0
-585 -586 0
584 585 586 0
c gate 587 580 -586 0
580 -587 0
-586 -587 0
-580 586 587 0
c gate 588 415 587 0
415 -588 0
587 -588 0
-415 -587 588 0
c PO
588 0
